(declare-const x Bool)
(declare-fun b (Int Int) Int)
(declare-fun b (Bool) Bool)
(declare-fun e () String)
(declare-fun v () Int)
(declare-fun a () Bool)
(declare-fun var37 () Int)
(declare-fun ar491 () (Seq Int))
(declare-fun ar () Int)
(declare-fun r () String)
(assert (or (exists ((v Int)) (= (b 0 v) (b 0 0))) (forall ((V Int)) (and (> 0 (/ ar (+ 0.5 (ite x v 0)))) (or x (= var37 (str.to_int (str.from_code var37))))))))
(assert (xor a x (seq.suffixof (seq.unit 0) ar491) (= 0 (ite x 1 0)) (or x (> 0 (str.len e)))))
(assert (xor a (b true) x (exists ((v String) (var604 Int)) (str.prefixof v (str.substr (str.substr v 1 (abs (- (abs var604) (* var604 var604 var604)))) 1 (str.to_int (ite a v r))))) a (= 0 (ite a 1 0))))
(check-sat)
